#Definition of the unit cell
acell      13.9235010838      16.0774741976      25.3072104390
rprim     1.000000000000     0.000000000000     0.000000000000
          0.000000000000     1.000000000000     0.000000000000
          0.000000000000     0.000000000000     1.000000000000
ntypat    2 
znucl 1 6 
natom   30 
typat 2 2 2 2 2 2 2 2 2 2 2 2 2 2 2 2 2 2 2 2 2 2 2 2 2 2 1 1 1 1 
xcart 
    0.000000000000     0.000000000000     0.000000000000 
    2.320583513975     1.339789516470     0.000000000000 
    2.320583513975     4.019368549411     0.000000000000 
    0.000000000000     5.359158065882     0.000000000000 
    0.000000000000     8.038737098823     0.000000000000 
    2.320583513975     9.378526615293     0.000000000000 
    2.320583513975    12.058105648234     0.000000000000 
    0.000000000000    13.397895164704     0.000000000000 
    4.641167027950     0.000000000000     0.000000000000 
    6.961750541925     1.339789516470     0.000000000000 
    6.961750541925     4.019368549411     0.000000000000 
    4.641167027950     5.359158065882     0.000000000000 
    4.641167027950     8.038737098823     0.000000000000 
    6.961750541925     9.378526615293     0.000000000000 
    6.961750541925    12.058105648234     0.000000000000 
    4.641167027950    13.397895164704     0.000000000000 
    9.282334055900     0.000000000000     0.000000000000 
   11.602917569875     1.339789516470     0.000000000000 
   11.602917569875     4.019368549411     0.000000000000 
    9.282334055900     5.359158065882     0.000000000000 
    9.282334055900     8.038737098823     0.000000000000 
   11.602917569875     9.378526615293     0.000000000000 
   11.602917569875    12.058105648234     0.000000000000 
    9.282334055900    13.397895164704     0.000000000000 
    8.045946559074     6.076692264008     7.501213947375 
    5.876025553520     7.329496740685     7.501213947375 
    8.144432795581     4.003797851443     7.467435149638 
    9.911676287757     6.912552721211     7.501213947375 
    4.031678716900     6.378291109464     7.467435279278 
    5.777431576135     9.402330177227     7.534988029670 

tsmear 0.04 
kptopt 1
ngkpt 3 3 2 
ecut 60 
nstep 50 
toldfe 1.0d-6 
