#Definition of the unit cell
acell      13.9235010838      16.0774741976      25.3072104390
rprim     1.000000000000     0.000000000000     0.000000000000
          0.000000000000     1.000000000000     0.000000000000
          0.000000000000     0.000000000000     1.000000000000
ntypat    2 
znucl 1 6 
natom   36 
typat 2 2 2 2 2 2 2 2 2 2 2 2 2 2 2 2 2 2 2 2 2 2 2 2 2 2 2 2 2 2 1 1 1 1 1 1 
xcart 
    0.000000000000     0.000000000000     0.000000000000 
    2.320583513975     1.339789516470     0.000000000000 
    2.320583513975     4.019368549411     0.000000000000 
    0.000000000000     5.359158065882     0.000000000000 
    0.000000000000     8.038737098823     0.000000000000 
    2.320583513975     9.378526615293     0.000000000000 
    2.320583513975    12.058105648234     0.000000000000 
    0.000000000000    13.397895164704     0.000000000000 
    4.641167027950     0.000000000000     0.000000000000 
    6.961750541925     1.339789516470     0.000000000000 
    6.961750541925     4.019368549411     0.000000000000 
    4.641167027950     5.359158065882     0.000000000000 
    4.641167027950     8.038737098823     0.000000000000 
    6.961750541925     9.378526615293     0.000000000000 
    6.961750541925    12.058105648234     0.000000000000 
    4.641167027950    13.397895164704     0.000000000000 
    9.282334055900     0.000000000000     0.000000000000 
   11.602917569875     1.339789516470     0.000000000000 
   11.602917569875     4.019368549411     0.000000000000 
    9.282334055900     5.359158065882     0.000000000000 
    9.282334055900     8.038737098823     0.000000000000 
   11.602917569875     9.378526615293     0.000000000000 
   11.602917569875    12.058105648234     0.000000000000 
    9.282334055900    13.397895164704     0.000000000000 
    9.244820192254     5.380807593878     7.500311979000 
    9.244852043746     8.017066196437     7.500311979000 
    6.961732257478     4.062715677104     7.500283633100 
    4.678642272732     5.380797196027     7.499142238600 
    6.961780334705     9.335198262231     7.501398571400 
    4.678686408385     8.017077073158     7.498688704400 
   11.044432442811     4.341692614003     7.500311979000 
    6.961771459331     1.984640593883     7.499406800200 
    2.878888954783     4.341936817729     7.498312648900 
   11.044494004306     9.056130529555     7.500451818700 
    6.961662121529    11.413268778552     7.501621559100 
    2.879132052348     9.056296097931     7.498261626300 

tsmear 0.04 
kptopt 1
ngkpt 3 3 2 
ecut 60 
nstep 50 
toldfe 1.0d-6 
