iommov 2
ntime 200
optcel 0
#Definition of the unit cell
acell      10.0531007914      10.0531007914      10.0531007914
rprim     0.467962367652     0.000000000000    -0.467962367652
         -0.270178198935     0.540356397869    -0.270178198935
          0.841436250278     0.841436250278     0.841436250278
ntypat    2 
znucl 8 31 
natom   10 
typat 2 2 2 2 1 1 1 1 1 1 
xcart 
    0.000000000000     0.000000000000     3.748709688009 
    0.000000000000     0.000000000000     8.939855462305 
    0.000000000000     0.000000000000    -3.748709688009 
    0.000000000000     0.000000000000    16.437274838322 
    1.696621088107    -2.938633925795     6.344282575157 
    1.696621088107     2.938633925795     6.344282575157 
   -3.393242176215     0.000000000000     6.344282575157 
   -1.696621088107     2.938633925795    19.032847725470 
   -1.696621088107    -2.938633925795    19.032847725470 
    3.393242176215     0.000000000000    19.032847725470 

tsmear 0.04
ixc 7 

kptopt 1
ngkpt 4 4 4 
ecut 40.0
nstep 100 
toldff 5.0d-5
tolmx 5.0d-4
diemac  12.0
