ionmov 2
ntime 200
optcel 0
#Definition of the unit cell
acell       7.4419299156       7.4419299156      11.5955476385
rprim     0.500000000000     0.500000000000     0.000000000000
         -0.866025403784     0.866025403784     0.000000000000
          0.000000000000     0.000000000000     1.000000000000
ntypat    2 
znucl 8 57 
natom    5 
typat 1 2 2 1 1 
xcart 
    0.000000000000     0.000000000000     0.000000000000 
    3.720964957811     2.148300120038     2.860621602423 
    3.720964957811    -2.148300120038    -2.860621602423 
    3.720964957811     2.148300120038     7.502319322122 
    3.720964957811    -2.148300120038    -7.502319322122 

tsmear 0.04
ixc 7 
 
kptopt 1
ngkpt 4 4 2
ecut 40.0 
nstep 100 
toldff 5.0d-5
tolmx  5.0d-4 
diemac 12.0  
