ionmov 2
ntime 200

#Definition of the unit cell
acell      10.5039210237      10.5039210237      10.5039210237
rprim     0.501489984671    -0.289535377646     0.815277290476
          0.000000000000     0.579070755292     0.815277290476
         -0.501489984671    -0.289535377646     0.815277290476
ntypat    3 
znucl 8 31 57 
natom   10 
typat 3 3 2 2 1 1 1 1 1 1 
xcart 
    0.000000000000     0.000000000000     6.376462719016 
    0.000000000000     0.000000000000    19.221875126381 
    0.000000000000     0.000000000000     0.000000000000 
    0.000000000000     0.000000000000    12.845412407365 
    2.560059039878     1.988981908195     1.926811861105 
   -3.002538380103     1.222585209624     1.926811861105 
    0.442479340226    -3.211567117820     1.926811861105 
    3.002538380103     1.222585209624    14.772224268470 
   -0.442479340226    -3.211567117820    14.772224268470 
   -2.560059039878     1.988981908195    14.772224268470 

tsmear 0.04 
ixc 7 

kptopt 1
ngkpt 3 3 3
 
ecut 45.0
nstep 100 

toldff 5.0d-5
tolmxf 5.0d-4   

diemac 12.0

