ionmov 2
ntime 200

#Definition of the unit cell
acell      10.3651470474      14.6831709313      10.4369566349
rprim     1.000000000000     0.000000000000     0.000000000000
          0.000000000000     1.000000000000     0.000000000000
          0.000000000000     0.000000000000     1.000000000000
ntypat    3 
znucl 31 8 57 
natom   20 
typat 1 1 1 1 3 3 3 3 2 2 2 2 2 2 2 2 2 2 2 2 
xcart 
    0.000000000000     0.000000000000     5.218478317461 
    5.182573523678     7.341585465629     0.000000000000 
    0.000000000000     7.341585465629     5.218478317461 
    5.182573523678     0.000000000000     0.000000000000 
   -0.431190117170     3.670792732815    -0.106456957676 
    4.751383406508     3.670792732815     5.324935275137 
    0.431190117170    11.012378198444     0.106456957676 
    5.613763640848    11.012378198444     5.112021359784 
    5.472797641004     3.670792732815     0.991510880318 
   10.655371164681     3.670792732815     4.226967437143 
   -5.472797641004    11.012378198444    -0.991510880318 
   -0.290224117326    11.012378198444     6.209989197778 
    2.127964688822     0.697450619235     8.268157046185 
    7.310538212500     6.644134846394    -3.049678728724 
   -2.127964688822     8.039036084864    -8.268157046185 
    3.054608834856    -0.697450619235    13.486635363645 
   -2.127964688822    -0.697450619235    -8.268157046185 
    3.054608834856     8.039036084864    13.486635363645 
    2.127964688822     6.644134846394     8.268157046185 
    7.310538212500     0.697450619235    -3.049678728724 


tsmear 0.04 
ixc 7 

kptopt 1
ngkpt 4 3 4
 
ecut 45.0
nstep 100 

toldff 5.0d-5
tolmxf 5.0d-4   

diemac 12.0

