ionmov 2
ntime 200
optcel 0
#Definition of the unit cell
acell      14.7093964442      14.6831710000      14.7093964442
rprim     0.704661611328     0.000000000000    -0.704661611328
          0.000000000000     1.000000000000     0.000000000000
          0.709543524754     0.000000000000     0.709543524754
ntype    3 
znucl 8 31 57 
natom   40 
type 2 2 2 2 2 2 2 2 3 3 3 3 3 3 3 3 1 1 1 1 1 1 1 1 1 1 1 1 1 1 1 1 1 1 1 1 1 1 1 1 
xcart 
    0.000000000000     0.000000000000     5.218478500000 
    0.000000000000     0.000000000000    15.655435500000 
    5.182573500000     7.341585500000     0.000000000000 
    5.182573500000     7.341585500000    10.436957000000 
    0.000000000000     7.341585500000     5.218478500000 
    0.000000000000     7.341585500000    15.655435500000 
    5.182573500000     0.000000000000     0.000000000000 
    5.182573500000     0.000000000000    10.436957000000 
   -0.301889113250     3.670792750000    -0.072597857423 
   -0.301889113250     3.670792750000    10.364359142577 
    4.880684386800     3.670792750000     5.291076357400 
    4.880684386800     3.670792750000    15.728033357400 
    0.301889113250    11.012378250000     0.072597857423 
    0.301889113250    11.012378250000    10.509554857423 
    5.484462613200    11.012378250000     5.145880642600 
    5.484462613200    11.012378250000    15.582837642600 
    5.236056047600     3.670792750000     0.636830013630 
    5.236056047600     3.670792750000    11.073787013630 
   10.418629548000     3.670792750000     4.581648486400 
   10.418629548000     3.670792750000    15.018605486400 
   -5.236056047600    11.012378250000    -0.636830013630 
   -5.236056047600    11.012378250000     9.800126986370 
   -0.053482547606    11.012378250000     5.855308513600 
   -0.053482547606    11.012378250000    16.292265513600 
    2.345338456200     0.490849831910     8.063488314400 
    2.345338456200     0.490849831910    18.500445314400 
    7.527911956200     6.850735668100    -2.845009814400 
    7.527911956200     6.850735668100     7.591947185600 
   -2.345338456200     7.832435331900    -8.063488314400 
   -2.345338456200     7.832435331900     2.373468685600 
    2.837235043800    -0.490849831910    13.281966814000 
    2.837235043800    -0.490849831910    23.718923814000 
   -2.345338456200    -0.490849831910    -8.063488314400 
   -2.345338456200    -0.490849831910     2.373468685600 
    2.837235043800     7.832435331900    13.281966814000 
    2.837235043800     7.832435331900    23.718923814000 
    2.345338456200     6.850735668100     8.063488314400 
    2.345338456200     6.850735668100    18.500445314400 
    7.527911956200     0.490849831910    -2.845009814400 
    7.527911956200     0.490849831910     7.591947185600 

tsmear 0.04
ixc 7

kptopt 1
ngkpt 2 2 2 
ecut 45.0
nstep 100 

toldff 5.0d-5
tolmx 5.0d-4
