ionmov 2 
ntime 200 
optcel 2
#Definition of the unit cell
acell       6.8949883953       6.8949883953       6.8949883953
rprim     0.000000000000     0.707106781187     0.707106781187
          0.707106781187     0.000000000000     0.707106781187
          0.707106781187     0.707106781187     0.000000000000
ntypat    2 
znucl 38 8 
natom    2 
typat 2 1 
xcart 
    0.000000000000     0.000000000000     0.000000000000 
    4.875493050534     4.875493050534     4.875493050534 


ixc 7
tsmear 0.04 
kptopt 1
ngkpt 4 4 4 
ecut 40 
nstep 100 
toldff 5.0d-5 
tolmx  5.0d-4
diemac 12.0
